GRAPH IS : 
0 0 0 0 0 0 0 0 0 0 0 0 0 0 0 0 0 0 0 0 0 0 0 0 0 0 0 0 0 0 0 0 0 0 0 0 0 0 0 0 0 0 0 0 0 0 0 0 0 0 0 0 0 0 0 0 0 0 0 0 0 0 0 0 0 0 0 0 0 0 0 0 0 0 0 0 0 0 0 0 0 0 0 0 0 0 0 
0 0 0 0 1 0 0 0 0 0 0 0 0 0 1 0 0 0 0 0 1 0 0 0 0 0 0 0 0 0 0 0 0 0 0 0 0 0 0 0 0 0 0 0 0 0 0 0 0 0 0 0 0 0 0 0 0 0 0 0 0 0 0 0 0 0 1 0 0 0 0 0 0 0 0 0 0 0 0 1 0 0 0 1 0 0 0 
0 0 0 0 1 0 0 1 0 0 0 1 0 0 0 0 1 0 0 1 0 0 0 1 0 0 0 0 0 1 0 0 1 1 1 1 0 0 0 1 0 0 1 1 0 0 1 0 0 0 0 0 0 1 1 1 1 0 1 0 0 0 0 0 0 0 1 1 0 0 0 0 1 0 1 0 1 0 0 1 1 1 0 1 0 0 1 
0 0 0 0 0 0 0 0 0 0 0 0 0 0 0 0 0 0 0 0 0 0 1 1 0 0 0 0 0 0 0 0 0 1 0 0 0 0 0 0 0 0 0 0 0 0 0 0 0 0 0 0 0 0 0 0 0 0 1 0 0 0 0 0 0 0 0 0 0 0 0 0 1 0 0 0 0 0 0 0 0 0 0 1 0 0 0 
0 1 1 0 0 0 0 0 0 0 0 0 1 0 1 0 0 0 1 1 1 1 0 0 0 0 0 0 0 0 0 0 1 0 1 0 0 0 0 0 0 0 0 0 0 0 1 0 0 1 0 0 0 0 0 1 0 0 0 1 0 0 0 0 0 0 1 0 0 0 0 0 0 0 1 0 0 0 0 1 0 0 0 1 0 0 0 
0 0 0 0 0 0 0 0 0 0 0 0 0 0 0 0 0 0 0 0 0 0 0 0 0 0 0 0 0 0 0 1 0 0 1 0 0 0 0 0 0 0 0 0 0 0 0 0 0 0 0 0 0 0 0 0 0 0 0 0 0 0 0 0 0 0 0 0 0 0 0 0 0 0 0 0 0 0 1 0 0 0 0 1 0 0 0 
0 0 0 0 0 0 0 0 0 0 0 0 0 0 0 0 0 0 0 0 0 0 0 0 0 0 0 0 0 0 0 0 0 0 0 0 0 0 0 0 0 0 0 0 0 0 0 1 0 0 0 0 0 0 0 0 0 0 0 0 0 0 0 0 0 0 0 0 0 0 0 0 0 0 0 0 0 0 0 0 0 0 0 1 0 0 0 
0 0 1 0 0 0 0 0 0 0 0 0 0 0 0 0 0 0 0 1 0 0 0 0 0 0 0 0 0 0 0 0 0 1 1 1 0 0 0 0 0 0 0 0 0 0 0 0 0 0 0 0 0 0 0 0 0 0 1 0 0 0 0 0 0 0 0 0 0 0 0 0 0 0 0 0 0 0 0 0 0 0 0 1 0 0 0 
0 0 0 0 0 0 0 0 0 0 0 0 0 0 0 0 0 0 0 0 0 0 0 0 0 0 0 0 0 0 0 0 0 0 0 0 0 0 0 0 0 0 0 0 0 0 0 0 0 1 0 0 0 0 0 0 0 0 0 0 0 0 0 0 0 0 0 0 0 0 0 1 0 0 0 0 0 0 0 0 0 0 0 1 0 0 0 
0 0 0 0 0 0 0 0 0 0 0 1 0 0 1 0 0 0 0 0 0 0 0 0 0 0 0 0 0 0 0 0 0 0 0 0 0 0 0 0 1 0 0 0 0 0 0 0 0 0 0 0 0 0 0 0 0 1 0 0 0 0 0 0 0 0 0 0 0 0 0 0 0 0 0 0 1 0 0 0 0 0 0 1 0 0 0 
0 0 0 0 0 0 0 0 0 0 0 0 0 0 0 0 0 0 0 0 0 0 0 0 0 0 0 0 0 0 0 0 0 0 0 0 0 0 0 0 0 0 1 0 0 0 0 0 0 0 0 0 0 0 0 0 0 0 0 0 0 0 0 0 0 0 0 0 0 0 0 0 0 0 0 0 0 0 0 0 0 0 0 1 0 0 0 
0 0 1 0 0 0 0 0 0 1 0 0 0 0 1 0 0 0 0 0 0 0 0 0 0 0 0 0 0 0 0 0 0 0 0 0 0 0 0 0 1 0 0 0 0 0 0 0 0 0 0 0 0 0 0 0 0 0 0 0 0 0 0 0 0 0 0 1 0 0 0 0 0 0 0 0 1 0 0 0 0 0 0 1 0 0 0 
0 0 0 0 1 0 0 0 0 0 0 0 0 0 1 0 0 0 0 0 1 1 0 0 0 0 0 0 0 0 0 0 1 0 1 0 1 0 0 0 0 0 0 0 0 0 1 0 0 0 0 0 1 0 0 0 0 0 0 0 0 0 0 0 0 0 0 0 1 0 0 0 0 0 1 0 0 0 0 0 0 0 0 1 0 0 0 
0 0 0 0 0 0 0 0 0 0 0 0 0 0 0 0 0 0 0 1 0 0 0 0 0 0 0 1 0 0 0 0 0 0 0 0 0 0 0 0 0 0 0 1 0 0 0 0 0 0 0 0 0 0 0 0 0 0 0 0 1 0 0 0 0 0 0 0 0 0 0 0 0 0 0 0 0 0 0 0 0 0 0 0 0 1 0 
0 1 0 0 1 0 0 0 0 1 0 1 1 0 0 0 0 0 0 0 1 1 0 0 0 0 0 0 0 0 0 0 1 0 1 0 0 0 0 0 1 0 0 0 0 0 1 0 0 1 0 0 0 0 0 0 0 0 0 0 0 0 0 0 0 0 1 0 0 0 0 0 0 0 1 0 1 0 0 1 0 0 0 1 0 0 0 
0 0 0 0 0 0 0 0 0 0 0 0 0 0 0 0 0 0 0 0 0 0 0 0 0 0 0 0 0 0 0 0 0 0 0 0 0 0 0 0 0 0 0 0 0 0 0 0 0 1 0 0 0 0 0 0 0 0 0 0 0 1 0 0 0 0 0 0 0 0 0 0 0 0 0 0 0 0 0 0 0 0 0 1 0 0 0 
0 0 1 0 0 0 0 0 0 0 0 0 0 0 0 0 0 0 0 0 0 0 1 0 0 0 0 0 0 0 0 0 0 0 0 0 0 0 0 0 0 0 1 0 0 0 0 0 0 0 0 0 0 0 0 0 0 0 0 0 0 0 0 1 0 0 1 1 0 0 0 0 0 0 0 0 1 1 0 0 0 0 0 1 0 0 0 
0 0 0 0 0 0 0 0 0 0 0 0 0 0 0 0 0 0 0 1 0 0 0 0 0 0 0 0 0 0 0 0 0 0 0 0 0 1 0 0 0 0 0 0 0 1 0 0 0 0 1 0 0 0 0 0 0 0 1 0 0 0 0 0 0 0 0 0 0 0 0 0 0 1 0 0 0 0 0 0 0 0 0 1 1 0 0 
0 0 0 0 1 0 0 0 0 0 0 0 0 0 0 0 0 0 0 0 0 0 0 0 0 0 0 0 0 0 0 0 0 0 0 0 0 0 0 0 0 0 0 0 0 0 0 0 0 1 0 0 0 0 0 0 0 0 0 1 0 0 0 0 0 0 0 0 0 0 0 1 0 0 0 0 0 0 0 0 0 0 0 1 0 0 0 
0 0 1 0 1 0 0 1 0 0 0 0 0 1 0 0 0 1 0 0 0 0 0 1 0 0 0 1 0 0 0 0 1 0 1 1 0 1 0 0 0 0 1 1 0 1 1 0 0 1 1 1 1 1 0 1 0 0 1 0 1 0 0 0 0 0 1 0 1 1 0 1 1 1 1 0 0 0 0 0 0 1 0 1 1 1 0 
0 1 0 0 1 0 0 0 0 0 0 0 1 0 1 0 0 0 0 0 0 1 0 0 0 0 0 0 0 0 0 0 1 0 1 0 0 0 0 0 0 0 0 0 0 0 1 0 0 1 0 0 0 0 0 0 0 0 0 1 0 0 0 0 0 0 1 0 0 0 0 1 0 0 1 0 0 0 0 1 0 0 0 1 0 0 0 
0 0 0 0 1 0 0 0 0 0 0 0 1 0 1 0 0 0 0 0 1 0 0 0 0 0 0 0 0 0 0 0 1 0 1 0 0 0 0 0 0 0 0 0 0 0 1 0 0 0 0 0 0 0 0 0 0 0 0 0 0 0 0 0 0 0 1 0 0 0 0 0 0 0 1 0 0 0 0 1 0 0 0 1 0 0 0 
0 0 0 1 0 0 0 0 0 0 0 0 0 0 0 0 1 0 0 0 0 0 0 0 0 0 0 0 0 0 0 0 0 0 0 0 0 0 0 0 0 0 1 0 0 0 0 0 0 0 0 0 0 0 0 0 0 0 0 0 0 0 0 1 0 0 0 0 0 0 0 0 0 0 0 0 0 1 0 0 0 0 0 1 0 0 0 
0 0 1 1 0 0 0 0 0 0 0 0 0 0 0 0 0 0 0 1 0 0 0 0 0 0 0 0 0 1 0 0 0 1 0 1 0 0 0 0 0 0 0 1 0 0 0 0 0 0 0 0 0 0 0 0 0 0 0 0 0 0 0 0 0 0 0 1 0 0 0 0 1 0 0 0 0 0 0 0 0 0 0 1 0 0 0 
0 0 0 0 0 0 0 0 0 0 0 0 0 0 0 0 0 0 0 0 0 0 0 0 0 0 0 0 0 0 0 0 0 0 0 0 0 0 0 0 0 0 0 0 0 0 0 0 0 0 0 0 0 0 0 0 0 0 0 0 0 0 0 0 0 0 1 1 0 0 0 0 0 0 0 0 0 0 0 0 1 0 0 1 0 0 0 
0 0 0 0 0 0 0 0 0 0 0 0 0 0 0 0 0 0 0 0 0 0 0 0 0 0 0 0 0 0 0 0 0 0 0 0 0 0 0 0 0 0 0 0 0 0 0 0 0 0 0 0 0 0 0 0 0 0 0 0 0 0 0 0 0 0 0 0 0 0 0 0 0 0 0 0 0 0 0 0 0 0 0 1 0 0 0 
0 0 0 0 0 0 0 0 0 0 0 0 0 0 0 0 0 0 0 0 0 0 0 0 0 0 0 0 0 0 0 0 0 0 0 0 0 0 0 0 0 0 0 0 0 0 0 0 0 0 0 0 0 0 0 0 0 0 0 0 0 0 0 0 0 0 0 0 0 0 0 0 0 0 0 0 0 0 0 0 0 0 0 1 0 0 0 
0 0 0 0 0 0 0 0 0 0 0 0 0 1 0 0 0 0 0 1 0 0 0 0 0 0 0 0 0 0 0 0 0 0 0 0 0 0 0 0 0 0 0 1 0 0 0 0 0 0 0 0 0 0 0 0 0 0 0 0 1 0 0 0 0 0 0 0 0 0 0 0 0 0 0 0 0 0 0 0 0 0 0 0 0 1 0 
0 0 0 0 0 0 0 0 0 0 0 0 0 0 0 0 0 0 0 0 0 0 0 0 0 0 0 0 0 0 0 0 0 0 0 0 0 0 0 0 0 0 0 0 0 0 0 0 0 0 0 1 0 0 0 0 0 0 0 0 0 0 0 0 0 0 0 0 1 1 0 0 0 0 0 0 0 0 0 0 0 0 0 1 0 0 0 
0 0 1 0 0 0 0 0 0 0 0 0 0 0 0 0 0 0 0 0 0 0 0 1 0 0 0 0 0 0 0 0 0 1 0 1 0 0 0 0 0 0 0 0 0 0 0 0 0 0 0 0 0 0 0 0 0 0 0 0 0 0 0 0 0 0 0 1 0 0 0 0 1 0 0 0 0 0 0 0 0 0 0 1 0 0 0 
0 0 0 0 0 0 0 0 0 0 0 0 0 0 0 0 0 0 0 0 0 0 0 0 0 0 0 0 0 0 0 0 0 0 0 0 0 0 0 1 0 0 0 0 0 0 0 0 0 0 0 0 0 0 0 0 0 0 0 0 0 0 0 0 0 0 0 0 0 0 0 0 0 0 0 0 0 0 0 0 0 0 0 1 0 0 0 
0 0 0 0 0 1 0 0 0 0 0 0 0 0 0 0 0 0 0 0 0 0 0 0 0 0 0 0 0 0 0 0 0 0 1 0 0 0 0 0 0 0 0 0 1 0 0 0 0 0 0 0 0 0 0 0 0 0 0 0 0 0 0 0 0 0 0 1 0 0 0 0 0 0 0 0 1 0 0 0 0 0 0 1 0 0 0 
0 0 1 0 1 0 0 0 0 0 0 0 1 0 1 0 0 0 0 1 1 1 0 0 0 0 0 0 0 0 0 0 0 0 1 0 0 0 0 0 0 0 0 0 0 0 1 0 0 0 0 0 0 0 0 1 0 0 0 0 0 0 0 0 0 0 1 0 0 0 1 0 0 0 1 0 0 0 0 0 0 0 0 1 0 0 0 
0 0 1 1 0 0 0 1 0 0 0 0 0 0 0 0 0 0 0 0 0 0 0 1 0 0 0 0 0 1 0 0 0 0 0 0 0 0 0 0 0 0 0 0 0 0 0 0 0 0 0 0 0 0 0 0 0 0 1 0 0 0 0 0 0 0 0 1 0 0 0 0 1 0 0 0 0 0 0 0 0 0 0 1 0 0 0 
0 0 1 0 1 1 0 1 0 0 0 0 1 0 1 0 0 0 0 1 1 1 0 0 0 0 0 0 0 0 0 1 1 0 0 1 0 0 0 0 0 0 0 0 0 0 1 0 0 0 0 0 0 0 0 1 0 0 1 0 0 0 0 0 0 0 1 0 0 0 1 1 0 0 1 0 0 0 0 0 0 0 0 1 0 0 0 
0 0 1 0 0 0 0 1 0 0 0 0 0 0 0 0 0 0 0 1 0 0 0 1 0 0 0 0 0 1 0 0 0 0 1 0 0 0 0 0 0 0 0 0 0 0 0 0 0 0 0 0 0 0 1 0 1 0 1 0 0 0 0 0 0 0 1 1 0 0 0 0 1 0 0 0 1 0 0 0 0 0 0 1 0 0 1 
0 0 0 0 0 0 0 0 0 0 0 0 1 0 0 0 0 0 0 0 0 0 0 0 0 0 0 0 0 0 0 0 0 0 0 0 0 0 0 0 0 0 0 0 0 0 0 0 0 0 0 0 1 0 0 0 0 0 0 0 0 0 0 0 0 0 0 0 0 0 0 0 0 0 0 0 0 0 0 0 0 0 0 1 0 0 0 
0 0 0 0 0 0 0 0 0 0 0 0 0 0 0 0 0 1 0 1 0 0 0 0 0 0 0 0 0 0 0 0 0 0 0 0 0 0 0 0 0 0 0 0 0 1 0 0 0 0 1 0 0 0 0 0 0 0 1 0 0 0 0 0 0 0 0 0 0 0 0 0 0 1 0 0 0 0 0 0 0 0 0 1 1 0 0 
0 0 0 0 0 0 0 0 0 0 0 0 0 0 0 0 0 0 0 0 0 0 0 0 0 0 0 0 0 0 0 0 0 0 0 0 0 0 0 0 0 0 0 0 0 0 0 0 0 0 0 0 0 0 0 0 0 0 0 0 0 0 0 0 0 0 0 0 0 0 0 0 0 0 0 0 0 0 0 0 0 0 0 1 0 0 0 
0 0 1 0 0 0 0 0 0 0 0 0 0 0 0 0 0 0 0 0 0 0 0 0 0 0 0 0 0 0 1 0 0 0 0 0 0 0 0 0 0 0 0 0 0 0 0 0 0 0 0 0 0 0 0 0 0 0 0 0 0 0 0 0 0 0 1 0 0 0 0 0 0 0 0 0 0 0 0 0 0 0 0 1 0 0 0 
0 0 0 0 0 0 0 0 0 1 0 1 0 0 1 0 0 0 0 0 0 0 0 0 0 0 0 0 0 0 0 0 0 0 0 0 0 0 0 0 0 0 0 0 0 0 0 0 0 0 0 0 0 0 0 0 0 1 0 0 0 0 0 0 0 0 0 0 0 0 0 0 0 0 0 0 1 0 0 0 0 0 0 1 0 0 0 
0 0 0 0 0 0 0 0 0 0 0 0 0 0 0 0 0 0 0 0 0 0 0 0 0 0 0 0 0 0 0 0 0 0 0 0 0 0 0 0 0 0 0 0 0 0 0 0 0 0 0 0 0 0 0 0 0 0 0 0 0 0 0 0 0 0 0 0 0 0 0 0 0 0 0 0 0 0 0 0 0 0 0 1 0 0 0 
0 0 1 0 0 0 0 0 0 0 1 0 0 0 0 0 1 0 0 1 0 0 1 0 0 0 0 0 0 0 0 0 0 0 0 0 0 0 0 0 0 0 0 1 0 0 0 0 0 0 0 0 0 1 0 0 0 0 0 0 0 0 0 1 0 0 1 1 0 0 0 0 0 0 0 0 0 1 0 0 0 1 0 1 0 0 0 
0 0 1 0 0 0 0 0 0 0 0 0 0 1 0 0 0 0 0 1 0 0 0 1 0 0 0 1 0 0 0 0 0 0 0 0 0 0 0 0 0 0 1 0 0 0 0 0 0 0 0 0 0 1 0 0 0 0 0 0 1 0 0 0 0 0 1 0 0 0 0 0 1 0 0 0 0 0 0 0 0 1 0 1 0 1 0 
0 0 0 0 0 0 0 0 0 0 0 0 0 0 0 0 0 0 0 0 0 0 0 0 0 0 0 0 0 0 0 1 0 0 0 0 0 0 0 0 0 0 0 0 0 0 0 0 0 0 0 0 0 0 0 0 0 0 0 0 0 0 0 0 0 0 0 0 0 0 0 0 0 0 0 0 1 0 0 0 0 0 0 1 0 0 0 
0 0 0 0 0 0 0 0 0 0 0 0 0 0 0 0 0 1 0 1 0 0 0 0 0 0 0 0 0 0 0 0 0 0 0 0 0 1 0 0 0 0 0 0 0 0 0 0 0 0 1 0 0 0 0 0 0 0 1 0 0 0 0 0 0 0 0 0 0 0 0 0 0 1 0 0 0 0 0 0 0 0 0 1 1 0 0 
0 0 1 0 1 0 0 0 0 0 0 0 1 0 1 0 0 0 0 1 1 1 0 0 0 0 0 0 0 0 0 0 1 0 1 0 0 0 0 0 0 0 0 0 0 0 0 0 0 0 0 0 0 0 0 1 0 0 0 0 0 0 0 0 0 0 1 0 0 0 1 1 0 0 1 0 0 0 0 0 0 0 0 1 0 0 0 
0 0 0 0 0 0 1 0 0 0 0 0 0 0 0 0 0 0 0 0 0 0 0 0 0 0 0 0 0 0 0 0 0 0 0 0 0 0 0 0 0 0 0 0 0 0 0 0 0 0 0 0 0 0 0 0 0 0 0 0 0 0 0 0 0 0 0 0 0 0 0 0 0 0 0 0 0 0 0 0 0 0 0 1 0 0 0 
0 0 0 0 0 0 0 0 0 0 0 0 0 0 0 0 0 0 0 0 0 0 0 0 0 0 0 0 0 0 0 0 0 0 0 0 0 0 0 0 0 0 0 0 0 0 0 0 0 0 0 0 0 0 0 0 0 0 0 0 0 0 0 0 0 0 0 0 0 0 0 0 0 0 0 0 0 0 0 0 0 0 0 1 0 0 0 
0 0 0 0 1 0 0 0 1 0 0 0 0 0 1 1 0 0 1 1 1 0 0 0 0 0 0 0 0 0 0 0 0 0 0 0 0 0 0 0 0 0 0 0 0 0 0 0 0 0 0 0 1 0 0 0 0 0 0 1 0 1 0 0 0 0 1 0 1 1 0 1 0 0 0 0 0 0 0 1 0 0 0 1 0 0 0 
0 0 0 0 0 0 0 0 0 0 0 0 0 0 0 0 0 1 0 1 0 0 0 0 0 0 0 0 0 0 0 0 0 0 0 0 0 1 0 0 0 0 0 0 0 1 0 0 0 0 0 0 0 0 0 0 0 0 1 0 0 0 0 0 0 0 0 0 0 0 0 0 0 1 0 0 0 0 0 0 0 0 0 1 1 0 0 
0 0 0 0 0 0 0 0 0 0 0 0 0 0 0 0 0 0 0 1 0 0 0 0 0 0 0 0 1 0 0 0 0 0 0 0 0 0 0 0 0 0 0 0 0 0 0 0 0 0 0 0 0 0 0 0 0 0 0 0 1 0 0 0 0 0 0 0 1 1 0 0 0 0 0 0 0 0 0 0 0 0 0 1 0 1 0 
0 0 0 0 0 0 0 0 0 0 0 0 1 0 0 0 0 0 0 1 0 0 0 0 0 0 0 0 0 0 0 0 0 0 0 0 1 0 0 0 0 0 0 0 0 0 0 0 0 1 0 0 0 0 0 0 0 0 0 0 0 0 0 0 0 0 0 0 1 1 0 0 0 0 0 0 0 0 0 0 0 0 0 1 0 0 0 
0 0 1 0 0 0 0 0 0 0 0 0 0 0 0 0 0 0 0 1 0 0 0 0 0 0 0 0 0 0 0 0 0 0 0 0 0 0 0 0 0 0 1 1 0 0 0 0 0 0 0 0 0 0 0 0 0 0 0 0 0 0 0 0 0 0 1 0 0 0 0 0 0 0 0 0 0 0 0 0 0 1 0 1 0 0 0 
0 0 1 0 0 0 0 0 0 0 0 0 0 0 0 0 0 0 0 0 0 0 0 0 0 0 0 0 0 0 0 0 0 0 0 1 0 0 0 0 0 0 0 0 0 0 0 0 0 0 0 0 0 0 0 0 0 0 0 0 0 0 0 0 0 0 0 1 0 0 0 0 0 0 0 0 1 0 0 0 0 0 0 1 0 0 0 
0 0 1 0 1 0 0 0 0 0 0 0 0 0 0 0 0 0 0 1 0 0 0 0 0 0 0 0 0 0 0 0 1 0 1 0 0 0 0 0 0 0 0 0 0 0 1 0 0 0 0 0 0 0 0 0 0 0 0 0 0 0 0 0 0 0 1 0 0 0 1 0 0 0 1 0 0 0 0 0 0 0 0 1 0 0 0 
0 0 1 0 0 0 0 0 0 0 0 0 0 0 0 0 0 0 0 0 0 0 0 0 0 0 0 0 0 0 0 0 0 0 0 1 0 0 0 0 0 0 0 0 0 0 0 0 0 0 0 0 0 0 0 0 0 0 0 0 0 0 0 0 0 0 0 0 0 0 0 0 0 0 0 0 0 0 0 0 0 0 0 1 0 0 0 
0 0 0 0 0 0 0 0 0 1 0 0 0 0 0 0 0 0 0 0 0 0 0 0 0 0 0 0 0 0 0 0 0 0 0 0 0 0 0 0 1 0 0 0 0 0 0 0 0 0 0 0 0 0 0 0 0 0 0 0 0 0 0 0 0 0 0 0 0 0 0 0 0 0 0 0 0 0 0 0 0 0 0 1 0 0 0 
0 0 1 1 0 0 0 1 0 0 0 0 0 0 0 0 0 1 0 1 0 0 0 0 0 0 0 0 0 0 0 0 0 1 1 1 0 1 0 0 0 0 0 0 0 1 0 0 0 0 1 0 0 0 0 0 0 0 0 0 0 0 0 0 0 0 0 0 0 1 0 1 1 1 0 0 0 0 0 0 0 0 0 1 1 0 0 
0 0 0 0 1 0 0 0 0 0 0 0 0 0 0 0 0 0 1 0 1 0 0 0 0 0 0 0 0 0 0 0 0 0 0 0 0 0 0 0 0 0 0 0 0 0 0 0 0 1 0 0 0 0 0 0 0 0 0 0 0 0 0 0 0 0 0 0 0 0 0 1 0 0 0 0 0 0 0 0 0 0 0 1 0 0 0 
0 0 0 0 0 0 0 0 0 0 0 0 0 1 0 0 0 0 0 1 0 0 0 0 0 0 0 1 0 0 0 0 0 0 0 0 0 0 0 0 0 0 0 1 0 0 0 0 0 0 0 1 0 0 0 0 0 0 0 0 0 0 0 0 0 0 0 0 0 0 0 0 0 0 0 0 0 0 0 0 0 0 0 0 0 1 0 
0 0 0 0 0 0 0 0 0 0 0 0 0 0 0 1 0 0 0 0 0 0 0 0 0 0 0 0 0 0 0 0 0 0 0 0 0 0 0 0 0 0 0 0 0 0 0 0 0 1 0 0 0 0 0 0 0 0 0 0 0 0 0 0 0 0 0 0 0 0 0 0 0 0 0 0 0 0 0 0 0 0 0 1 0 0 0 
0 0 0 0 0 0 0 0 0 0 0 0 0 0 0 0 0 0 0 0 0 0 0 0 0 0 0 0 0 0 0 0 0 0 0 0 0 0 0 0 0 0 0 0 0 0 0 0 0 0 0 0 0 0 0 0 0 0 0 0 0 0 0 0 0 0 0 0 0 0 0 0 0 0 0 0 0 0 0 0 0 0 0 1 0 0 0 
0 0 0 0 0 0 0 0 0 0 0 0 0 0 0 0 1 0 0 0 0 0 1 0 0 0 0 0 0 0 0 0 0 0 0 0 0 0 0 0 0 0 1 0 0 0 0 0 0 0 0 0 0 0 0 0 0 0 0 0 0 0 0 0 0 0 0 0 0 0 0 0 0 0 0 0 0 1 0 0 0 0 0 1 0 0 0 
0 0 0 0 0 0 0 0 0 0 0 0 0 0 0 0 0 0 0 0 0 0 0 0 0 0 0 0 0 0 0 0 0 0 0 0 0 0 0 0 0 0 0 0 0 0 0 0 0 0 0 0 0 0 0 0 0 0 0 0 0 0 0 0 0 0 0 0 0 0 0 0 0 0 0 0 0 0 0 0 0 0 0 1 0 0 0 
0 0 0 0 0 0 0 0 0 0 0 0 0 0 0 0 0 0 0 0 0 0 0 0 0 0 0 0 0 0 0 0 0 0 0 0 0 0 0 0 0 0 0 0 0 0 0 0 0 0 0 0 0 0 0 0 0 0 0 0 0 0 0 0 0 0 0 0 0 0 0 0 0 0 0 0 0 0 0 0 0 0 0 1 0 0 0 
0 1 1 0 1 0 0 0 0 0 0 0 0 0 1 0 1 0 0 1 1 1 0 0 1 0 0 0 0 0 0 0 1 0 1 1 0 0 0 1 0 0 1 1 0 0 1 0 0 1 0 0 0 1 0 1 0 0 0 0 0 0 0 0 0 0 0 1 0 0 0 0 0 0 1 0 1 0 0 1 1 1 0 1 0 0 1 
0 0 1 0 0 0 0 0 0 0 0 1 0 0 0 0 1 0 0 0 0 0 0 1 1 0 0 0 0 1 0 1 0 1 0 1 0 0 0 0 0 0 1 0 0 0 0 0 0 0 0 0 0 0 1 0 0 0 0 0 0 0 0 0 0 0 1 0 0 0 0 0 1 0 0 0 1 0 0 0 1 0 0 1 0 0 0 
0 0 0 0 0 0 0 0 0 0 0 0 1 0 0 0 0 0 0 1 0 0 0 0 0 0 0 0 1 0 0 0 0 0 0 0 0 0 0 0 0 0 0 0 0 0 0 0 0 1 0 1 1 0 0 0 0 0 0 0 0 0 0 0 0 0 0 0 0 1 0 0 0 0 0 0 0 0 0 0 0 0 0 1 0 0 0 
0 0 0 0 0 0 0 0 0 0 0 0 0 0 0 0 0 0 0 1 0 0 0 0 0 0 0 0 1 0 0 0 0 0 0 0 0 0 0 0 0 0 0 0 0 0 0 0 0 1 0 1 1 0 0 0 0 0 1 0 0 0 0 0 0 0 0 0 1 0 0 1 0 0 0 0 0 0 0 0 0 0 0 1 0 0 0 
0 0 0 0 0 0 0 0 0 0 0 0 0 0 0 0 0 0 0 0 0 0 0 0 0 0 0 0 0 0 0 0 1 0 1 0 0 0 0 0 0 0 0 0 0 0 1 0 0 0 0 0 0 0 0 1 0 0 0 0 0 0 0 0 0 0 0 0 0 0 0 0 0 0 1 0 0 0 0 0 0 0 0 1 0 0 0 
0 0 0 0 0 0 0 0 1 0 0 0 0 0 0 0 0 0 1 1 1 0 0 0 0 0 0 0 0 0 0 0 0 0 1 0 0 0 0 0 0 0 0 0 0 0 1 0 0 1 0 0 0 0 0 0 0 0 1 1 0 0 0 0 0 0 0 0 0 1 0 0 0 0 0 0 0 0 0 0 0 0 0 1 0 0 0 
0 0 1 1 0 0 0 0 0 0 0 0 0 0 0 0 0 0 0 1 0 0 0 1 0 0 0 0 0 1 0 0 0 1 0 1 0 0 0 0 0 0 0 1 0 0 0 0 0 0 0 0 0 0 0 0 0 0 1 0 0 0 0 0 0 0 0 1 0 0 0 0 0 0 0 0 0 0 0 0 0 0 0 1 0 0 0 
0 0 0 0 0 0 0 0 0 0 0 0 0 0 0 0 0 1 0 1 0 0 0 0 0 0 0 0 0 0 0 0 0 0 0 0 0 1 0 0 0 0 0 0 0 1 0 0 0 0 1 0 0 0 0 0 0 0 1 0 0 0 0 0 0 0 0 0 0 0 0 0 0 0 0 0 0 0 0 0 0 0 0 1 1 0 0 
0 0 1 0 1 0 0 0 0 0 0 0 1 0 1 0 0 0 0 1 1 1 0 0 0 0 0 0 0 0 0 0 1 0 1 0 0 0 0 0 0 0 0 0 0 0 1 0 0 0 0 0 0 0 0 1 0 0 0 0 0 0 0 0 0 0 1 0 0 0 1 0 0 0 0 0 0 0 0 0 0 0 0 1 0 0 0 
0 0 0 0 0 0 0 0 0 0 0 0 0 0 0 0 0 0 0 0 0 0 0 0 0 0 0 0 0 0 0 0 0 0 0 0 0 0 0 0 0 0 0 0 0 0 0 0 0 0 0 0 0 0 0 0 0 0 0 0 0 0 0 0 0 0 0 0 0 0 0 0 0 0 0 0 0 0 0 0 0 0 0 1 0 0 0 
0 0 1 0 0 0 0 0 0 1 0 1 0 0 1 0 1 0 0 0 0 0 0 0 0 0 0 0 0 0 0 1 0 0 0 1 0 0 0 0 1 0 0 0 1 0 0 0 0 0 0 0 0 0 1 0 0 0 0 0 0 0 0 0 0 0 1 1 0 0 0 0 0 0 0 0 0 0 0 0 1 0 0 1 0 0 0 
0 0 0 0 0 0 0 0 0 0 0 0 0 0 0 0 1 0 0 0 0 0 1 0 0 0 0 0 0 0 0 0 0 0 0 0 0 0 0 0 0 0 1 0 0 0 0 0 0 0 0 0 0 0 0 0 0 0 0 0 0 0 0 1 0 0 0 0 0 0 0 0 0 0 0 0 0 0 0 0 0 0 0 1 0 0 0 
0 0 0 0 0 1 0 0 0 0 0 0 0 0 0 0 0 0 0 0 0 0 0 0 0 0 0 0 0 0 0 0 0 0 0 0 0 0 0 0 0 0 0 0 0 0 0 0 0 0 0 0 0 0 0 0 0 0 0 0 0 0 0 0 0 0 0 0 0 0 0 0 0 0 0 0 0 0 0 0 0 0 0 1 0 0 0 
0 1 1 0 1 0 0 0 0 0 0 0 0 0 1 0 0 0 0 0 1 1 0 0 0 0 0 0 0 0 0 0 0 0 0 0 0 0 0 0 0 0 0 0 0 0 0 0 0 1 0 0 0 0 0 0 0 0 0 0 0 0 0 0 0 0 1 0 0 0 0 0 0 0 0 0 0 0 0 0 0 0 0 1 0 0 0 
0 0 1 0 0 0 0 0 0 0 0 0 0 0 0 0 0 0 0 0 0 0 0 0 1 0 0 0 0 0 0 0 0 0 0 0 0 0 0 0 0 0 0 0 0 0 0 0 0 0 0 0 0 0 0 0 0 0 0 0 0 0 0 0 0 0 1 1 0 0 0 0 0 0 0 0 1 0 0 0 0 0 0 1 0 0 0 
0 0 1 0 0 0 0 0 0 0 0 0 0 0 0 0 0 0 0 1 0 0 0 0 0 0 0 0 0 0 0 0 0 0 0 0 0 0 0 0 0 0 1 1 0 0 0 0 0 0 0 0 0 1 0 0 0 0 0 0 0 0 0 0 0 0 1 0 0 0 0 0 0 0 0 0 0 0 0 0 0 0 0 1 0 0 0 
0 0 0 0 0 0 0 0 0 0 0 0 0 0 0 0 0 0 0 0 0 0 0 0 0 0 0 0 0 0 0 0 0 0 0 0 0 0 0 0 0 0 0 0 0 0 0 0 0 0 0 0 0 0 0 0 0 0 0 0 0 0 0 0 0 0 0 0 0 0 0 0 0 0 0 0 0 0 0 0 0 0 0 1 0 0 0 
0 1 1 1 1 1 1 1 1 1 1 1 1 0 1 1 1 1 1 1 1 1 1 1 1 1 1 0 1 1 1 1 1 1 1 1 1 1 1 1 1 1 1 1 1 1 1 1 1 1 1 1 1 1 1 1 1 1 1 1 0 1 1 1 1 1 1 1 1 1 1 1 1 1 1 1 1 1 1 1 1 1 1 0 1 0 1 
0 0 0 0 0 0 0 0 0 0 0 0 0 0 0 0 0 1 0 1 0 0 0 0 0 0 0 0 0 0 0 0 0 0 0 0 0 1 0 0 0 0 0 0 0 1 0 0 0 0 1 0 0 0 0 0 0 0 1 0 0 0 0 0 0 0 0 0 0 0 0 0 0 1 0 0 0 0 0 0 0 0 0 1 0 0 0 
0 0 0 0 0 0 0 0 0 0 0 0 0 1 0 0 0 0 0 1 0 0 0 0 0 0 0 1 0 0 0 0 0 0 0 0 0 0 0 0 0 0 0 1 0 0 0 0 0 0 0 1 0 0 0 0 0 0 0 0 1 0 0 0 0 0 0 0 0 0 0 0 0 0 0 0 0 0 0 0 0 0 0 0 0 0 0 
0 0 1 0 0 0 0 0 0 0 0 0 0 0 0 0 0 0 0 0 0 0 0 0 0 0 0 0 0 0 0 0 0 0 0 1 0 0 0 0 0 0 0 0 0 0 0 0 0 0 0 0 0 0 0 0 0 0 0 0 0 0 0 0 0 0 1 0 0 0 0 0 0 0 0 0 0 0 0 0 0 0 0 1 0 0 0 




----------------------------

EPOCH: 0 MAX:  -41.379310345    AVG:  -46.011494253
EPOCH: 1 MAX:  -41.379310345    AVG:  -44.227011494
EPOCH: 2 MAX:  -40.229885057    AVG:  -43.425287356
EPOCH: 3 MAX:  -39.655172414    AVG:  -42.617816092
EPOCH: 4 MAX:  -38.505747126    AVG:  -42.017241379
EPOCH: 5 MAX:  -37.931034483    AVG:  -41.448275862
EPOCH: 6 MAX:  -37.931034483    AVG:  -40.954022989
EPOCH: 7 MAX:  -37.356321839    AVG:  -40.442528736
EPOCH: 8 MAX:  -37.356321839    AVG:  -40.114942529
EPOCH: 9 MAX:  -36.781609195    AVG:  -39.721264368
EPOCH: 10 MAX:  -36.781609195    AVG:  -39.373563218
EPOCH: 11 MAX:  -36.781609195    AVG:  -39.074712644
EPOCH: 12 MAX:  -36.781609195    AVG:  -38.635057471
EPOCH: 13 MAX:  -36.781609195    AVG:  -38.270114943
EPOCH: 14 MAX:  -36.206896552    AVG:  -37.798850575
EPOCH: 15 MAX:  -36.206896552    AVG:  -37.488505747
EPOCH: 16 MAX:  -36.206896552    AVG:  -37.284482759
EPOCH: 17 MAX:  -35.632183908    AVG:  -37.008620690
EPOCH: 18 MAX:  -34.482758621    AVG:  -36.761494253
EPOCH: 19 MAX:  -34.482758621    AVG:  -36.491379310
EPOCH: 20 MAX:  -34.482758621    AVG:  -36.224137931
EPOCH: 21 MAX:  -34.482758621    AVG:  -35.962643678
EPOCH: 22 MAX:  -34.482758621    AVG:  -35.701149425
EPOCH: 23 MAX:  -34.482758621    AVG:  -35.609195402
EPOCH: 24 MAX:  -34.482758621    AVG:  -35.580459770
EPOCH: 25 MAX:  -34.482758621    AVG:  -35.485632184
EPOCH: 26 MAX:  -34.482758621    AVG:  -35.350574713
EPOCH: 27 MAX:  -34.482758621    AVG:  -35.028735632
EPOCH: 28 MAX:  -33.908045977    AVG:  -34.936781609
EPOCH: 29 MAX:  -33.908045977    AVG:  -34.752873563
EPOCH: 30 MAX:  -33.908045977    AVG:  -34.448275862
EPOCH: 31 MAX:  -33.908045977    AVG:  -34.362068966
EPOCH: 32 MAX:  -33.333333333    AVG:  -34.192528736
EPOCH: 33 MAX:  -33.333333333    AVG:  -33.905172414
EPOCH: 34 MAX:  -32.758620690    AVG:  -33.795977011
EPOCH: 35 MAX:  -32.758620690    AVG:  -33.603448276
EPOCH: 36 MAX:  -32.183908046    AVG:  -33.284482759
EPOCH: 37 MAX:  -32.183908046    AVG:  -33.137931034
EPOCH: 38 MAX:  -32.183908046    AVG:  -32.836206897
EPOCH: 39 MAX:  -31.609195402    AVG:  -32.488505747
EPOCH: 40 MAX:  -31.609195402    AVG:  -32.112068966
EPOCH: 41 MAX:  -31.609195402    AVG:  -31.962643678
EPOCH: 42 MAX:  -31.609195402    AVG:  -31.629310345
EPOCH: 43 MAX:  -31.609195402    AVG:  -31.609195402
EPOCH: 44 MAX:  -31.609195402    AVG:  -31.609195402
EPOCH: 45 MAX:  -31.609195402    AVG:  -31.609195402
EPOCH: 46 MAX:  -31.609195402    AVG:  -31.609195402
EPOCH: 47 MAX:  -31.609195402    AVG:  -31.609195402
EPOCH: 48 MAX:  -31.609195402    AVG:  -31.609195402
EPOCH: 49 MAX:  -31.609195402    AVG:  -31.609195402
EPOCH: 50 MAX:  -31.609195402    AVG:  -31.609195402
EPOCH: 51 MAX:  -31.609195402    AVG:  -31.609195402
EPOCH: 52 MAX:  -31.609195402    AVG:  -31.609195402
EPOCH: 53 MAX:  -31.609195402    AVG:  -31.609195402
EPOCH: 54 MAX:  -31.609195402    AVG:  -31.609195402
EPOCH: 55 MAX:  -31.609195402    AVG:  -31.609195402
EPOCH: 56 MAX:  -31.609195402    AVG:  -31.609195402
EPOCH: 57 MAX:  -31.609195402    AVG:  -31.609195402
EPOCH: 58 MAX:  -31.609195402    AVG:  -31.609195402
EPOCH: 59 MAX:  -31.609195402    AVG:  -31.609195402
EPOCH: 60 MAX:  -31.609195402    AVG:  -31.609195402
EPOCH: 61 MAX:  -31.609195402    AVG:  -31.609195402
EPOCH: 62 MAX:  -31.609195402    AVG:  -31.609195402
EPOCH: 63 MAX:  -31.609195402    AVG:  -31.609195402
EPOCH: 64 MAX:  -31.609195402    AVG:  -31.609195402
EPOCH: 65 MAX:  -31.609195402    AVG:  -31.609195402
EPOCH: 66 MAX:  -31.609195402    AVG:  -31.609195402
EPOCH: 67 MAX:  -31.609195402    AVG:  -31.609195402
EPOCH: 68 MAX:  -31.609195402    AVG:  -31.609195402
EPOCH: 69 MAX:  -31.609195402    AVG:  -31.609195402
EPOCH: 70 MAX:  -31.609195402    AVG:  -31.609195402
EPOCH: 71 MAX:  -31.609195402    AVG:  -31.609195402
EPOCH: 72 MAX:  -31.609195402    AVG:  -31.609195402
EPOCH: 73 MAX:  -31.609195402    AVG:  -31.609195402
EPOCH: 74 MAX:  -31.609195402    AVG:  -31.609195402
EPOCH: 75 MAX:  -31.609195402    AVG:  -31.609195402
EPOCH: 76 MAX:  -31.609195402    AVG:  -31.609195402
EPOCH: 77 MAX:  -31.609195402    AVG:  -31.609195402
EPOCH: 78 MAX:  -31.609195402    AVG:  -31.609195402
EPOCH: 79 MAX:  -31.609195402    AVG:  -31.609195402
EPOCH: 80 MAX:  -31.609195402    AVG:  -31.609195402
EPOCH: 81 MAX:  -31.609195402    AVG:  -31.609195402
EPOCH: 82 MAX:  -31.609195402    AVG:  -31.609195402
EPOCH: 83 MAX:  -31.609195402    AVG:  -31.609195402
EPOCH: 84 MAX:  -31.609195402    AVG:  -31.609195402
EPOCH: 85 MAX:  -31.609195402    AVG:  -31.609195402
EPOCH: 86 MAX:  -31.609195402    AVG:  -31.609195402
EPOCH: 87 MAX:  -31.609195402    AVG:  -31.609195402
EPOCH: 88 MAX:  -31.609195402    AVG:  -31.609195402
EPOCH: 89 MAX:  -31.609195402    AVG:  -31.609195402
EPOCH: 90 MAX:  -31.609195402    AVG:  -31.609195402
EPOCH: 91 MAX:  -31.609195402    AVG:  -31.609195402
EPOCH: 92 MAX:  -31.609195402    AVG:  -31.609195402
EPOCH: 93 MAX:  -31.609195402    AVG:  -31.609195402
EPOCH: 94 MAX:  -31.609195402    AVG:  -31.609195402
EPOCH: 95 MAX:  -31.609195402    AVG:  -31.609195402
EPOCH: 96 MAX:  -31.609195402    AVG:  -31.609195402
EPOCH: 97 MAX:  -31.609195402    AVG:  -31.609195402
EPOCH: 98 MAX:  -31.609195402    AVG:  -31.609195402
EPOCH: 99 MAX:  -31.609195402    AVG:  -31.609195402
EPOCH: 100 MAX:  -31.609195402    AVG:  -31.609195402
EPOCH: 101 MAX:  -31.609195402    AVG:  -31.609195402
EPOCH: 102 MAX:  -31.609195402    AVG:  -31.609195402
EPOCH: 103 MAX:  -31.609195402    AVG:  -31.609195402
EPOCH: 104 MAX:  -31.609195402    AVG:  -31.609195402
EPOCH: 105 MAX:  -31.609195402    AVG:  -31.609195402
EPOCH: 106 MAX:  -31.609195402    AVG:  -31.609195402
EPOCH: 107 MAX:  -31.609195402    AVG:  -31.609195402
EPOCH: 108 MAX:  -31.609195402    AVG:  -31.609195402
EPOCH: 109 MAX:  -31.609195402    AVG:  -31.609195402
EPOCH: 110 MAX:  -31.609195402    AVG:  -31.609195402
EPOCH: 111 MAX:  -31.609195402    AVG:  -31.609195402
EPOCH: 112 MAX:  -31.609195402    AVG:  -31.609195402
EPOCH: 113 MAX:  -31.609195402    AVG:  -31.609195402
HELPER:  ....
EPOCH: 114 MAX:  -31.609195402    AVG:  -31.609195402
EPOCH: 115 MAX:  -31.609195402    AVG:  -31.609195402
EPOCH: 116 MAX:  -31.609195402    AVG:  -31.609195402
EPOCH: 117 MAX:  -31.609195402    AVG:  -31.609195402
EPOCH: 118 MAX:  -31.609195402    AVG:  -31.609195402
EPOCH: 119 MAX:  -31.609195402    AVG:  -31.609195402
EPOCH: 120 MAX:  -31.609195402    AVG:  -31.609195402
EPOCH: 121 MAX:  -31.609195402    AVG:  -31.609195402
EPOCH: 122 MAX:  -31.609195402    AVG:  -31.609195402
EPOCH: 123 MAX:  -31.609195402    AVG:  -31.609195402
EPOCH: 124 MAX:  -31.609195402    AVG:  -31.609195402
EPOCH: 125 MAX:  -31.609195402    AVG:  -31.609195402
EPOCH: 126 MAX:  -31.609195402    AVG:  -31.609195402
EPOCH: 127 MAX:  -31.609195402    AVG:  -31.609195402
EPOCH: 128 MAX:  -31.609195402    AVG:  -31.609195402
EPOCH: 129 MAX:  -31.609195402    AVG:  -31.609195402
EPOCH: 130 MAX:  -31.609195402    AVG:  -31.609195402
EPOCH: 131 MAX:  -31.609195402    AVG:  -31.609195402
EPOCH: 132 MAX:  -31.609195402    AVG:  -31.609195402
EPOCH: 133 MAX:  -31.609195402    AVG:  -31.609195402
EPOCH: 134 MAX:  -31.609195402    AVG:  -31.609195402
EPOCH: 135 MAX:  -31.609195402    AVG:  -31.609195402
EPOCH: 136 MAX:  -31.609195402    AVG:  -31.609195402
EPOCH: 137 MAX:  -31.609195402    AVG:  -31.609195402
EPOCH: 138 MAX:  -31.609195402    AVG:  -31.609195402
EPOCH: 139 MAX:  -31.609195402    AVG:  -31.609195402
EPOCH: 140 MAX:  -31.609195402    AVG:  -31.609195402
EPOCH: 141 MAX:  -31.609195402    AVG:  -31.609195402
EPOCH: 142 MAX:  -31.609195402    AVG:  -31.609195402
EPOCH: 143 MAX:  -31.609195402    AVG:  -31.609195402
EPOCH: 144 MAX:  -31.609195402    AVG:  -31.609195402
EPOCH: 145 MAX:  -31.609195402    AVG:  -31.609195402
EPOCH: 146 MAX:  -31.609195402    AVG:  -31.609195402
EPOCH: 147 MAX:  -31.609195402    AVG:  -31.609195402
EPOCH: 148 MAX:  -31.609195402    AVG:  -31.609195402
EPOCH: 149 MAX:  -31.609195402    AVG:  -31.609195402
EPOCH: 150 MAX:  -31.609195402    AVG:  -31.609195402
EPOCH: 151 MAX:  -31.609195402    AVG:  -31.609195402
EPOCH: 152 MAX:  -31.609195402    AVG:  -31.609195402
EPOCH: 153 MAX:  -31.609195402    AVG:  -31.609195402
EPOCH: 154 MAX:  -31.609195402    AVG:  -31.609195402
EPOCH: 155 MAX:  -31.609195402    AVG:  -31.609195402
EPOCH: 156 MAX:  -31.609195402    AVG:  -31.609195402
EPOCH: 157 MAX:  -31.609195402    AVG:  -31.609195402
EPOCH: 158 MAX:  -31.609195402    AVG:  -31.609195402
EPOCH: 159 MAX:  -31.609195402    AVG:  -31.609195402
EPOCH: 160 MAX:  -31.609195402    AVG:  -31.609195402
EPOCH: 161 MAX:  -31.609195402    AVG:  -31.609195402
EPOCH: 162 MAX:  -31.609195402    AVG:  -31.609195402
EPOCH: 163 MAX:  -31.609195402    AVG:  -31.609195402
EPOCH: 164 MAX:  -31.609195402    AVG:  -31.609195402
EPOCH: 165 MAX:  -31.609195402    AVG:  -31.609195402
EPOCH: 166 MAX:  -31.609195402    AVG:  -31.609195402
EPOCH: 167 MAX:  -31.609195402    AVG:  -31.609195402
EPOCH: 168 MAX:  -31.609195402    AVG:  -31.609195402
EPOCH: 169 MAX:  -31.609195402    AVG:  -31.609195402
EPOCH: 170 MAX:  -31.609195402    AVG:  -31.609195402
EPOCH: 171 MAX:  -31.609195402    AVG:  -31.609195402
EPOCH: 172 MAX:  -31.609195402    AVG:  -31.609195402
EPOCH: 173 MAX:  -31.609195402    AVG:  -31.609195402
EPOCH: 174 MAX:  -31.609195402    AVG:  -31.609195402
EPOCH: 175 MAX:  -31.609195402    AVG:  -31.609195402
EPOCH: 176 MAX:  -31.609195402    AVG:  -31.609195402
EPOCH: 177 MAX:  -31.609195402    AVG:  -31.609195402
EPOCH: 178 MAX:  -31.609195402    AVG:  -31.609195402
EPOCH: 179 MAX:  -31.609195402    AVG:  -31.609195402
EPOCH: 180 MAX:  -31.609195402    AVG:  -31.609195402
EPOCH: 181 MAX:  -31.609195402    AVG:  -31.609195402
EPOCH: 182 MAX:  -31.609195402    AVG:  -31.609195402
EPOCH: 183 MAX:  -31.609195402    AVG:  -31.609195402
HELPER:  ....
EPOCH: 184 MAX:  -31.609195402    AVG:  -31.609195402
EPOCH: 185 MAX:  -31.609195402    AVG:  -31.609195402
EPOCH: 186 MAX:  -31.609195402    AVG:  -31.609195402
EPOCH: 187 MAX:  -31.609195402    AVG:  -31.609195402
EPOCH: 188 MAX:  -31.609195402    AVG:  -31.609195402
EPOCH: 189 MAX:  -31.609195402    AVG:  -31.609195402
EPOCH: 190 MAX:  -31.609195402    AVG:  -31.609195402
EPOCH: 191 MAX:  -31.609195402    AVG:  -31.609195402
EPOCH: 192 MAX:  -31.609195402    AVG:  -31.609195402
EPOCH: 193 MAX:  -31.609195402    AVG:  -31.609195402
EPOCH: 194 MAX:  -31.609195402    AVG:  -31.609195402
EPOCH: 195 MAX:  -31.609195402    AVG:  -31.609195402
EPOCH: 196 MAX:  -31.609195402    AVG:  -31.609195402
EPOCH: 197 MAX:  -31.609195402    AVG:  -31.609195402
EPOCH: 198 MAX:  -31.609195402    AVG:  -31.609195402
EPOCH: 199 MAX:  -31.609195402    AVG:  -31.609195402
EPOCH: 200 MAX:  -31.609195402    AVG:  -31.609195402
EPOCH: 201 MAX:  -31.609195402    AVG:  -31.609195402
EPOCH: 202 MAX:  -31.609195402    AVG:  -31.609195402
EPOCH: 203 MAX:  -31.609195402    AVG:  -31.609195402
EPOCH: 204 MAX:  -31.609195402    AVG:  -31.609195402
EPOCH: 205 MAX:  -31.609195402    AVG:  -31.609195402
EPOCH: 206 MAX:  -31.609195402    AVG:  -31.609195402
EPOCH: 207 MAX:  -31.609195402    AVG:  -31.609195402
EPOCH: 208 MAX:  -31.609195402    AVG:  -31.609195402
EPOCH: 209 MAX:  -31.609195402    AVG:  -31.609195402
EPOCH: 210 MAX:  -31.609195402    AVG:  -31.609195402
EPOCH: 211 MAX:  -31.609195402    AVG:  -31.609195402
EPOCH: 212 MAX:  -31.609195402    AVG:  -31.609195402
EPOCH: 213 MAX:  -31.609195402    AVG:  -31.609195402
EPOCH: 214 MAX:  -31.609195402    AVG:  -31.609195402
EPOCH: 215 MAX:  -31.609195402    AVG:  -31.609195402
EPOCH: 216 MAX:  -31.609195402    AVG:  -31.609195402
EPOCH: 217 MAX:  -31.609195402    AVG:  -31.609195402
EPOCH: 218 MAX:  -31.609195402    AVG:  -31.609195402
EPOCH: 219 MAX:  -31.609195402    AVG:  -31.609195402
EPOCH: 220 MAX:  -31.609195402    AVG:  -31.609195402
EPOCH: 221 MAX:  -31.609195402    AVG:  -31.609195402
EPOCH: 222 MAX:  -31.609195402    AVG:  -31.609195402
EPOCH: 223 MAX:  -31.609195402    AVG:  -31.609195402
EPOCH: 224 MAX:  -31.609195402    AVG:  -31.609195402
EPOCH: 225 MAX:  -31.609195402    AVG:  -31.609195402
EPOCH: 226 MAX:  -31.609195402    AVG:  -31.609195402
EPOCH: 227 MAX:  -31.609195402    AVG:  -31.609195402
EPOCH: 228 MAX:  -31.609195402    AVG:  -31.609195402
EPOCH: 229 MAX:  -31.609195402    AVG:  -31.609195402
EPOCH: 230 MAX:  -31.609195402    AVG:  -31.609195402
EPOCH: 231 MAX:  -31.609195402    AVG:  -31.609195402
EPOCH: 232 MAX:  -31.609195402    AVG:  -31.609195402
EPOCH: 233 MAX:  -31.609195402    AVG:  -31.609195402
EPOCH: 234 MAX:  -31.609195402    AVG:  -31.609195402
EPOCH: 235 MAX:  -31.609195402    AVG:  -31.609195402
EPOCH: 236 MAX:  -31.609195402    AVG:  -31.609195402
EPOCH: 237 MAX:  -31.609195402    AVG:  -31.609195402
EPOCH: 238 MAX:  -31.609195402    AVG:  -31.609195402
EPOCH: 239 MAX:  -31.609195402    AVG:  -31.609195402
EPOCH: 240 MAX:  -31.609195402    AVG:  -31.609195402
EPOCH: 241 MAX:  -31.609195402    AVG:  -31.609195402
EPOCH: 242 MAX:  -31.609195402    AVG:  -31.609195402
EPOCH: 243 MAX:  -31.609195402    AVG:  -31.609195402
EPOCH: 244 MAX:  -31.609195402    AVG:  -31.609195402
EPOCH: 245 MAX:  -31.609195402    AVG:  -31.609195402
EPOCH: 246 MAX:  -31.609195402    AVG:  -31.609195402
EPOCH: 247 MAX:  -31.609195402    AVG:  -31.609195402
EPOCH: 248 MAX:  -31.609195402    AVG:  -31.609195402
EPOCH: 249 MAX:  -31.609195402    AVG:  -31.609195402
EPOCH: 250 MAX:  -31.609195402    AVG:  -31.609195402
EPOCH: 251 MAX:  -31.609195402    AVG:  -31.609195402
EPOCH: 252 MAX:  -31.609195402    AVG:  -31.609195402
EPOCH: 253 MAX:  -31.609195402    AVG:  -31.609195402
HELPER:  ....
---------------------------
CH: 0 422.000000000
CH: 1 136.000000000
CH: 2 49.000000000
CH: 3 33.000000000
CH: 4 395.000000000
CH: 5 422.000000000
CH: 6 230.000000000
CH: 7 13.000000000
CH: 8 368.000000000
CH: 9 30.000000000
CH: 10 422.000000000
CH: 11 136.000000000
CH: 12 243.000000000
CH: 13 63.000000000
CH: 14 203.000000000
CH: 15 134.000000000
CH: 16 433.000000000
CH: 17 325.000000000
CH: 18 243.000000000
CH: 19 121.000000000
CH: 20 83.000000000
CH: 21 63.000000000
CH: 22 371.000000000
CH: 23 354.000000000
CH: 24 174.000000000
CH: 25 121.000000000
CH: 26 368.000000000
CH: 27 81.000000000
CH: 28 400.000000000
CH: 29 105.000000000
CH: 30 33.000000000
CH: 31 56.000000000
CH: 32 86.000000000
CH: 33 230.000000000
CH: 34 240.000000000
CH: 35 371.000000000
CH: 36 78.000000000
CH: 37 240.000000000
CH: 38 158.000000000
CH: 39 144.000000000
CH: 40 158.000000000
CH: 41 428.000000000
CH: 42 415.000000000
CH: 43 6.000000000
CH: 44 69.000000000
CH: 45 395.000000000
CH: 46 80.000000000
CH: 47 164.000000000
CH: 48 158.000000000
CH: 49 50.000000000
CH: 50 56.000000000
CH: 51 222.000000000
CH: 52 397.000000000
CH: 53 115.000000000
CH: 54 102.000000000
CH: 55 67.000000000
CH: 56 69.000000000
CH: 57 311.000000000
CH: 58 368.000000000
CH: 59 396.000000000
CH: 60 166.000000000
CH: 61 248.000000000
CH: 62 69.000000000
CH: 63 6.000000000
CH: 64 342.000000000
CH: 65 415.000000000
CH: 66 414.000000000
CH: 67 83.000000000
CH: 68 23.000000000
CH: 69 371.000000000
CH: 70 79.000000000
CH: 71 411.000000000
CH: 72 222.000000000
CH: 73 105.000000000
CH: 74 113.000000000
CH: 75 1.000000000
CH: 76 1.000000000
CH: 77 1.000000000
CH: 78 1.000000000
CH: 79 166.000000000
CH: 80 113.000000000
CH: 81 293.000000000
CH: 82 182.000000000
CH: 83 151.000000000
CH: 84 363.000000000
CH: 85 105.000000000
CH: 86 6.000000000





END ------------------------
ERROR: 0.000000000
NUM OF COLORS USED = 56
